decision_x1=[0,2];
decision_x2=[0,2];
decision_x3=[0,2];
decision_x4=[0,2];
decision_x5=[0,2];
random_y1=[0,2];
constraint_x3_x1=[
0,0,3.3|
0,1,5.8|
0,2,3.2|
1,0,9.2|
1,1,2|
1,2,7.6|
2,0,4.1|
2,1,4.2|
2,2,9.9|
];
constraint_x3_x2=[
0,0,9.1|
0,1,6.4|
0,2,4.5|
1,0,0.33|
1,1,6.4|
1,2,4.1|
2,0,2.6|
2,1,1.2|
2,2,3.9|
];
constraint_x4_x2=[
0,0,4.3|
0,1,3.1|
0,2,0.13|
1,0,0.18|
1,1,0.94|
1,2,6.2|
2,0,6.9|
2,1,6.8|
2,2,9.9|
];
constraint_x4_x3=[
0,0,3.6|
0,1,9.7|
0,2,5.9|
1,0,5|
1,1,7.8|
1,2,4.7|
2,0,8.1|
2,1,2.7|
2,2,5|
];
constraint_x5_x1=[
0,0,4.9|
0,1,8.2|
0,2,4.1|
1,0,0.8|
1,1,4.8|
1,2,1.4|
2,0,9.6|
2,1,9.8|
2,2,6.6|
];
constraint_x1_y1=[
0,0,0.22|
0,1,4.1|
0,2,2.3|
1,0,5.2|
1,1,5.7|
1,2,6.1|
2,0,8.1|
2,1,1.4|
2,2,7.4|
];
initial_distribution_y1=[0.63,0.034,0.33];
transition_y1=[
0.32,0.5,0.18|
0.39,0.2,0.41|
0.23,0.43,0.34|
];
